c This is a sample 3-SAT problem.
p cnf 20 15
1 -5 4 0
-1 5 3 0
-3 -4 2 0
-2 18 -12 0
11 15 20 0
-11 -15 -20 0
1 15 -20 0
-1 -15 20 0
5 11 20 0
-5 -11 -20 0
4 11 15 0
-4 -11 -15 0
2 8 9 0
-13 14 -16 0
17 -19 7 0
